60
1 0 1
2 0 6
2 1 3
3 0 2
3 1 1
3 2 1
4 0 2
4 1 3
4 2 1
4 3 1
5 0 1
5 1 2
5 2 1
5 3 3
5 4 3
6 0 1
6 1 3
6 2 1
6 3 6
6 4 1
6 5 4
7 0 3
7 1 2
7 2 1
7 3 5
7 4 6
7 5 6
7 6 3
8 0 1
8 1 5
8 2 4
8 3 5
8 4 6
8 5 2
8 6 4
8 7 1
9 0 2
9 1 1
9 2 2
9 3 1
9 4 6
9 5 3
9 6 6
9 7 6
9 8 1
10 0 6
10 1 5
10 2 3
10 3 3
10 4 1
10 5 2
10 6 2
10 7 1
10 8 5
10 9 5
11 0 1
11 1 4
11 2 4
11 3 3
11 4 3
11 5 5
11 6 1
11 7 4
11 8 1
11 9 2
11 10 4
12 0 6
12 1 4
12 2 6
12 3 2
12 4 2
12 5 6
12 6 2
12 7 2
12 8 3
12 9 3
12 10 4
12 11 5
13 0 4
13 1 5
13 2 2
13 3 1
13 4 4
13 5 6
13 6 3
13 7 2
13 8 5
13 9 2
13 10 4
13 11 6
13 12 4
14 0 4
14 1 5
14 2 1
14 3 6
14 4 4
14 5 5
14 6 6
14 7 4
14 8 3
14 9 4
14 10 3
14 11 3
14 12 6
14 13 1
15 0 4
15 1 3
15 2 6
15 3 4
15 4 4
15 5 3
15 6 5
15 7 2
15 8 4
15 9 6
15 10 3
15 11 3
15 12 3
15 13 2
15 14 6
16 0 4
16 1 2
16 2 6
16 3 3
16 4 4
16 5 3
16 6 3
16 7 2
16 8 1
16 9 2
16 10 1
16 11 4
16 12 5
16 13 4
16 14 1
16 15 4
17 0 4
17 1 3
17 2 1
17 3 4
17 4 3
17 5 5
17 6 3
17 7 1
17 8 6
17 9 6
17 10 1
17 11 2
17 12 1
17 13 1
17 14 5
17 15 4
17 16 1
18 0 4
18 1 3
18 2 6
18 3 3
18 4 6
18 5 1
18 6 2
18 7 5
18 8 2
18 9 5
18 10 4
18 11 3
18 12 5
18 13 6
18 14 5
18 15 1
18 16 4
18 17 5
19 0 4
19 1 3
19 2 6
19 3 2
19 4 4
19 5 4
19 6 4
19 7 1
19 8 1
19 9 2
19 10 6
19 11 6
19 12 4
19 13 1
19 14 1
19 15 4
19 16 4
19 17 6
19 18 4
20 0 3
20 1 6
20 2 2
20 3 2
20 4 1
20 5 2
20 6 6
20 7 1
20 8 1
20 9 5
20 10 6
20 11 6
20 12 2
20 13 5
20 14 5
20 15 6
20 16 6
20 17 4
20 18 4
20 19 6
21 0 3
21 1 1
21 2 6
21 3 4
21 4 2
21 5 5
21 6 3
21 7 3
21 8 6
21 9 2
21 10 4
21 11 5
21 12 5
21 13 1
21 14 3
21 15 6
21 16 1
21 17 6
21 18 4
21 19 3
21 20 3
22 0 4
22 1 2
22 2 2
22 3 5
22 4 5
22 5 1
22 6 4
22 7 6
22 8 5
22 9 2
22 10 3
22 11 3
22 12 4
22 13 5
22 14 2
22 15 4
22 16 4
22 17 1
22 18 2
22 19 5
22 20 1
22 21 5
23 0 4
23 1 2
23 2 3
23 3 4
23 4 6
23 5 2
23 6 6
23 7 3
23 8 1
23 9 5
23 10 3
23 11 6
23 12 1
23 13 5
23 14 3
23 15 6
23 16 3
23 17 2
23 18 5
23 19 6
23 20 1
23 21 4
23 22 4
24 0 6
24 1 6
24 2 1
24 3 6
24 4 1
24 5 2
24 6 1
24 7 1
24 8 4
24 9 6
24 10 6
24 11 6
24 12 1
24 13 5
24 14 2
24 15 5
24 16 6
24 17 2
24 18 5
24 19 1
24 20 1
24 21 3
24 22 3
24 23 5
25 0 4
25 1 6
25 2 2
25 3 4
25 4 5
25 5 4
25 6 5
25 7 4
25 8 5
25 9 4
25 10 3
25 11 2
25 12 4
25 13 3
25 14 4
25 15 2
25 16 2
25 17 6
25 18 1
25 19 1
25 20 4
25 21 1
25 22 5
25 23 1
25 24 1
26 0 5
26 1 3
26 2 6
26 3 2
26 4 1
26 5 4
26 6 3
26 7 4
26 8 3
26 9 4
26 10 5
26 11 1
26 12 6
26 13 5
26 14 2
26 15 3
26 16 5
26 17 5
26 18 6
26 19 2
26 20 6
26 21 1
26 22 1
26 23 5
26 24 4
26 25 3
27 0 5
27 1 4
27 2 5
27 3 2
27 4 2
27 5 6
27 6 6
27 7 1
27 8 4
27 9 1
27 10 5
27 11 5
27 12 6
27 13 6
27 14 2
27 15 4
27 16 4
27 17 5
27 18 1
27 19 2
27 20 5
27 21 2
27 22 3
27 23 2
27 24 2
27 25 5
27 26 6
28 0 2
28 1 2
28 2 3
28 3 4
28 4 1
28 5 4
28 6 5
28 7 2
28 8 1
28 9 4
28 10 3
28 11 6
28 12 3
28 13 2
28 14 2
28 15 5
28 16 1
28 17 3
28 18 6
28 19 2
28 20 4
28 21 6
28 22 1
28 23 2
28 24 5
28 25 6
28 26 6
28 27 6
29 0 1
29 1 1
29 2 3
29 3 3
29 4 5
29 5 3
29 6 4
29 7 6
29 8 5
29 9 2
29 10 1
29 11 3
29 12 1
29 13 1
29 14 4
29 15 4
29 16 4
29 17 3
29 18 5
29 19 6
29 20 6
29 21 2
29 22 1
29 23 3
29 24 6
29 25 1
29 26 1
29 27 2
29 28 6
30 0 6
30 1 5
30 2 6
30 3 3
30 4 5
30 5 6
30 6 4
30 7 6
30 8 5
30 9 3
30 10 3
30 11 6
30 12 2
30 13 1
30 14 5
30 15 2
30 16 5
30 17 1
30 18 6
30 19 2
30 20 2
30 21 5
30 22 2
30 23 5
30 24 6
30 25 1
30 26 3
30 27 4
30 28 4
30 29 2
31 0 5
31 1 1
31 2 4
31 3 4
31 4 4
31 5 5
31 6 3
31 7 2
31 8 2
31 9 2
31 10 3
31 11 6
31 12 3
31 13 2
31 14 5
31 15 1
31 16 5
31 17 4
31 18 1
31 19 5
31 20 6
31 21 5
31 22 5
31 23 4
31 24 5
31 25 3
31 26 3
31 27 3
31 28 6
31 29 3
31 30 2
32 0 4
32 1 6
32 2 4
32 3 2
32 4 2
32 5 2
32 6 1
32 7 2
32 8 2
32 9 3
32 10 1
32 11 4
32 12 4
32 13 6
32 14 1
32 15 3
32 16 6
32 17 2
32 18 6
32 19 5
32 20 1
32 21 4
32 22 6
32 23 1
32 24 2
32 25 4
32 26 6
32 27 4
32 28 5
32 29 1
32 30 3
32 31 3
33 0 6
33 1 5
33 2 6
33 3 1
33 4 2
33 5 5
33 6 6
33 7 2
33 8 5
33 9 4
33 10 5
33 11 6
33 12 1
33 13 1
33 14 4
33 15 3
33 16 4
33 17 3
33 18 5
33 19 5
33 20 5
33 21 3
33 22 1
33 23 1
33 24 5
33 25 3
33 26 4
33 27 6
33 28 3
33 29 3
33 30 1
33 31 6
33 32 3
34 0 6
34 1 1
34 2 2
34 3 3
34 4 3
34 5 3
34 6 4
34 7 2
34 8 5
34 9 1
34 10 2
34 11 5
34 12 1
34 13 5
34 14 5
34 15 1
34 16 6
34 17 6
34 18 3
34 19 6
34 20 4
34 21 6
34 22 3
34 23 3
34 24 3
34 25 4
34 26 6
34 27 5
34 28 2
34 29 5
34 30 4
34 31 4
34 32 5
34 33 6
35 0 1
35 1 4
35 2 2
35 3 1
35 4 2
35 5 1
35 6 2
35 7 4
35 8 1
35 9 5
35 10 3
35 11 4
35 12 5
35 13 5
35 14 1
35 15 4
35 16 2
35 17 5
35 18 2
35 19 1
35 20 1
35 21 1
35 22 4
35 23 6
35 24 2
35 25 2
35 26 6
35 27 5
35 28 5
35 29 5
35 30 1
35 31 3
35 32 4
35 33 4
35 34 1
36 0 6
36 1 1
36 2 2
36 3 4
36 4 2
36 5 3
36 6 4
36 7 1
36 8 5
36 9 4
36 10 3
36 11 2
36 12 1
36 13 1
36 14 3
36 15 2
36 16 6
36 17 2
36 18 3
36 19 4
36 20 2
36 21 6
36 22 2
36 23 3
36 24 3
36 25 1
36 26 5
36 27 1
36 28 3
36 29 6
36 30 1
36 31 3
36 32 4
36 33 1
36 34 5
36 35 6
37 0 3
37 1 2
37 2 3
37 3 3
37 4 3
37 5 4
37 6 3
37 7 3
37 8 6
37 9 5
37 10 4
37 11 6
37 12 6
37 13 2
37 14 4
37 15 3
37 16 4
37 17 1
37 18 5
37 19 2
37 20 3
37 21 1
37 22 4
37 23 3
37 24 1
37 25 4
37 26 2
37 27 2
37 28 1
37 29 2
37 30 6
37 31 5
37 32 3
37 33 6
37 34 2
37 35 5
37 36 4
38 0 1
38 1 5
38 2 5
38 3 3
38 4 4
38 5 3
38 6 2
38 7 5
38 8 3
38 9 1
38 10 6
38 11 1
38 12 1
38 13 1
38 14 1
38 15 3
38 16 2
38 17 1
38 18 4
38 19 2
38 20 3
38 21 4
38 22 1
38 23 4
38 24 5
38 25 2
38 26 5
38 27 4
38 28 2
38 29 1
38 30 3
38 31 3
38 32 2
38 33 2
38 34 2
38 35 5
38 36 1
38 37 5
39 0 5
39 1 4
39 2 4
39 3 5
39 4 4
39 5 1
39 6 3
39 7 6
39 8 2
39 9 6
39 10 1
39 11 3
39 12 6
39 13 5
39 14 6
39 15 1
39 16 2
39 17 2
39 18 5
39 19 4
39 20 6
39 21 5
39 22 1
39 23 1
39 24 4
39 25 3
39 26 6
39 27 2
39 28 5
39 29 4
39 30 6
39 31 2
39 32 2
39 33 6
39 34 3
39 35 5
39 36 1
39 37 6
39 38 5
40 0 3
40 1 3
40 2 1
40 3 1
40 4 2
40 5 4
40 6 5
40 7 5
40 8 3
40 9 4
40 10 6
40 11 4
40 12 5
40 13 5
40 14 3
40 15 2
40 16 3
40 17 4
40 18 6
40 19 1
40 20 6
40 21 1
40 22 1
40 23 5
40 24 2
40 25 3
40 26 6
40 27 6
40 28 6
40 29 1
40 30 4
40 31 6
40 32 1
40 33 1
40 34 6
40 35 2
40 36 5
40 37 3
40 38 1
40 39 2
41 0 1
41 1 4
41 2 6
41 3 3
41 4 2
41 5 6
41 6 6
41 7 5
41 8 3
41 9 3
41 10 2
41 11 2
41 12 4
41 13 3
41 14 4
41 15 1
41 16 1
41 17 1
41 18 5
41 19 1
41 20 1
41 21 4
41 22 2
41 23 4
41 24 6
41 25 2
41 26 3
41 27 1
41 28 3
41 29 2
41 30 2
41 31 1
41 32 6
41 33 2
41 34 1
41 35 5
41 36 6
41 37 3
41 38 6
41 39 5
41 40 2
42 0 3
42 1 4
42 2 6
42 3 5
42 4 3
42 5 2
42 6 4
42 7 5
42 8 5
42 9 5
42 10 1
42 11 3
42 12 2
42 13 2
42 14 3
42 15 5
42 16 1
42 17 3
42 18 3
42 19 1
42 20 2
42 21 4
42 22 3
42 23 4
42 24 6
42 25 1
42 26 4
42 27 6
42 28 5
42 29 5
42 30 5
42 31 6
42 32 4
42 33 6
42 34 3
42 35 1
42 36 3
42 37 2
42 38 6
42 39 5
42 40 5
42 41 4
43 0 1
43 1 1
43 2 1
43 3 2
43 4 2
43 5 3
43 6 1
43 7 5
43 8 4
43 9 2
43 10 5
43 11 3
43 12 4
43 13 3
43 14 1
43 15 4
43 16 5
43 17 4
43 18 3
43 19 3
43 20 3
43 21 2
43 22 5
43 23 3
43 24 6
43 25 1
43 26 2
43 27 4
43 28 5
43 29 6
43 30 5
43 31 2
43 32 4
43 33 5
43 34 1
43 35 3
43 36 3
43 37 6
43 38 1
43 39 6
43 40 1
43 41 6
43 42 4
44 0 3
44 1 5
44 2 6
44 3 6
44 4 2
44 5 1
44 6 1
44 7 6
44 8 5
44 9 4
44 10 6
44 11 1
44 12 4
44 13 6
44 14 3
44 15 5
44 16 4
44 17 3
44 18 3
44 19 2
44 20 3
44 21 6
44 22 5
44 23 1
44 24 5
44 25 3
44 26 1
44 27 4
44 28 5
44 29 6
44 30 1
44 31 3
44 32 2
44 33 2
44 34 2
44 35 1
44 36 2
44 37 3
44 38 1
44 39 1
44 40 4
44 41 3
44 42 3
44 43 2
45 0 3
45 1 5
45 2 1
45 3 5
45 4 6
45 5 6
45 6 5
45 7 3
45 8 6
45 9 3
45 10 6
45 11 5
45 12 4
45 13 4
45 14 4
45 15 5
45 16 2
45 17 4
45 18 3
45 19 3
45 20 3
45 21 4
45 22 5
45 23 1
45 24 1
45 25 5
45 26 2
45 27 5
45 28 4
45 29 6
45 30 1
45 31 6
45 32 2
45 33 2
45 34 6
45 35 4
45 36 2
45 37 3
45 38 3
45 39 6
45 40 1
45 41 6
45 42 1
45 43 5
45 44 6
46 0 5
46 1 3
46 2 4
46 3 6
46 4 4
46 5 1
46 6 5
46 7 6
46 8 6
46 9 3
46 10 2
46 11 1
46 12 5
46 13 3
46 14 5
46 15 4
46 16 4
46 17 5
46 18 5
46 19 5
46 20 4
46 21 4
46 22 4
46 23 4
46 24 4
46 25 2
46 26 5
46 27 1
46 28 6
46 29 3
46 30 2
46 31 2
46 32 4
46 33 3
46 34 3
46 35 6
46 36 2
46 37 1
46 38 2
46 39 3
46 40 4
46 41 3
46 42 2
46 43 6
46 44 2
46 45 2
47 0 6
47 1 4
47 2 5
47 3 5
47 4 2
47 5 6
47 6 1
47 7 3
47 8 4
47 9 3
47 10 4
47 11 1
47 12 6
47 13 2
47 14 6
47 15 5
47 16 4
47 17 6
47 18 3
47 19 6
47 20 3
47 21 5
47 22 5
47 23 3
47 24 1
47 25 5
47 26 3
47 27 2
47 28 3
47 29 2
47 30 5
47 31 2
47 32 3
47 33 4
47 34 2
47 35 1
47 36 5
47 37 6
47 38 2
47 39 6
47 40 3
47 41 1
47 42 6
47 43 3
47 44 1
47 45 3
47 46 4
48 0 3
48 1 4
48 2 1
48 3 3
48 4 1
48 5 2
48 6 3
48 7 4
48 8 1
48 9 2
48 10 5
48 11 2
48 12 5
48 13 2
48 14 2
48 15 2
48 16 1
48 17 2
48 18 2
48 19 4
48 20 5
48 21 2
48 22 5
48 23 2
48 24 2
48 25 4
48 26 6
48 27 5
48 28 3
48 29 5
48 30 3
48 31 6
48 32 5
48 33 6
48 34 2
48 35 2
48 36 1
48 37 1
48 38 4
48 39 1
48 40 4
48 41 6
48 42 4
48 43 1
48 44 3
48 45 1
48 46 5
48 47 1
49 0 2
49 1 2
49 2 5
49 3 6
49 4 4
49 5 2
49 6 6
49 7 4
49 8 2
49 9 4
49 10 2
49 11 4
49 12 6
49 13 6
49 14 6
49 15 2
49 16 1
49 17 3
49 18 1
49 19 4
49 20 4
49 21 1
49 22 2
49 23 3
49 24 3
49 25 1
49 26 5
49 27 1
49 28 4
49 29 4
49 30 3
49 31 5
49 32 1
49 33 4
49 34 2
49 35 6
49 36 4
49 37 6
49 38 6
49 39 1
49 40 2
49 41 6
49 42 5
49 43 5
49 44 1
49 45 2
49 46 1
49 47 2
49 48 6
50 0 6
50 1 4
50 2 3
50 3 5
50 4 4
50 5 5
50 6 1
50 7 1
50 8 5
50 9 3
50 10 4
50 11 1
50 12 5
50 13 1
50 14 5
50 15 5
50 16 5
50 17 2
50 18 6
50 19 1
50 20 4
50 21 1
50 22 5
50 23 4
50 24 4
50 25 3
50 26 5
50 27 1
50 28 3
50 29 1
50 30 1
50 31 5
50 32 5
50 33 2
50 34 4
50 35 3
50 36 3
50 37 1
50 38 1
50 39 3
50 40 6
50 41 3
50 42 1
50 43 3
50 44 1
50 45 3
50 46 3
50 47 4
50 48 3
50 49 2
51 0 1
51 1 1
51 2 3
51 3 3
51 4 2
51 5 4
51 6 6
51 7 6
51 8 2
51 9 6
51 10 4
51 11 1
51 12 5
51 13 1
51 14 5
51 15 3
51 16 6
51 17 1
51 18 3
51 19 4
51 20 2
51 21 4
51 22 3
51 23 3
51 24 5
51 25 6
51 26 5
51 27 6
51 28 5
51 29 3
51 30 4
51 31 5
51 32 3
51 33 1
51 34 6
51 35 6
51 36 4
51 37 1
51 38 6
51 39 2
51 40 5
51 41 5
51 42 4
51 43 3
51 44 2
51 45 4
51 46 2
51 47 4
51 48 1
51 49 1
51 50 6
52 0 6
52 1 2
52 2 2
52 3 2
52 4 3
52 5 5
52 6 2
52 7 6
52 8 3
52 9 1
52 10 3
52 11 6
52 12 5
52 13 2
52 14 6
52 15 6
52 16 5
52 17 4
52 18 5
52 19 3
52 20 2
52 21 6
52 22 3
52 23 1
52 24 5
52 25 2
52 26 1
52 27 3
52 28 5
52 29 2
52 30 3
52 31 1
52 32 3
52 33 4
52 34 4
52 35 2
52 36 2
52 37 2
52 38 6
52 39 4
52 40 2
52 41 1
52 42 3
52 43 5
52 44 1
52 45 2
52 46 2
52 47 4
52 48 4
52 49 3
52 50 2
52 51 1
53 0 3
53 1 1
53 2 5
53 3 1
53 4 2
53 5 5
53 6 6
53 7 4
53 8 3
53 9 6
53 10 5
53 11 3
53 12 4
53 13 1
53 14 3
53 15 6
53 16 3
53 17 4
53 18 4
53 19 5
53 20 4
53 21 6
53 22 5
53 23 4
53 24 5
53 25 2
53 26 2
53 27 2
53 28 2
53 29 3
53 30 4
53 31 5
53 32 5
53 33 2
53 34 4
53 35 3
53 36 4
53 37 5
53 38 5
53 39 1
53 40 3
53 41 4
53 42 3
53 43 5
53 44 2
53 45 5
53 46 3
53 47 3
53 48 4
53 49 3
53 50 2
53 51 1
53 52 1
54 0 5
54 1 6
54 2 2
54 3 6
54 4 1
54 5 2
54 6 4
54 7 3
54 8 6
54 9 6
54 10 2
54 11 4
54 12 4
54 13 1
54 14 4
54 15 4
54 16 2
54 17 4
54 18 2
54 19 2
54 20 3
54 21 3
54 22 1
54 23 1
54 24 1
54 25 2
54 26 4
54 27 3
54 28 5
54 29 5
54 30 3
54 31 4
54 32 3
54 33 3
54 34 3
54 35 6
54 36 2
54 37 2
54 38 5
54 39 4
54 40 3
54 41 1
54 42 1
54 43 4
54 44 6
54 45 2
54 46 4
54 47 4
54 48 5
54 49 6
54 50 3
54 51 4
54 52 4
54 53 2
55 0 6
55 1 4
55 2 2
55 3 4
55 4 2
55 5 3
55 6 3
55 7 6
55 8 3
55 9 1
55 10 1
55 11 1
55 12 1
55 13 6
55 14 6
55 15 6
55 16 3
55 17 1
55 18 3
55 19 3
55 20 1
55 21 1
55 22 6
55 23 1
55 24 2
55 25 3
55 26 2
55 27 1
55 28 1
55 29 3
55 30 6
55 31 5
55 32 1
55 33 5
55 34 2
55 35 5
55 36 4
55 37 5
55 38 1
55 39 2
55 40 2
55 41 3
55 42 6
55 43 6
55 44 2
55 45 1
55 46 3
55 47 3
55 48 2
55 49 4
55 50 1
55 51 1
55 52 2
55 53 4
55 54 5
56 0 6
56 1 6
56 2 6
56 3 1
56 4 2
56 5 4
56 6 4
56 7 4
56 8 1
56 9 5
56 10 1
56 11 4
56 12 2
56 13 6
56 14 1
56 15 2
56 16 3
56 17 3
56 18 5
56 19 4
56 20 6
56 21 6
56 22 2
56 23 5
56 24 6
56 25 6
56 26 5
56 27 6
56 28 2
56 29 5
56 30 1
56 31 5
56 32 1
56 33 2
56 34 3
56 35 6
56 36 3
56 37 2
56 38 6
56 39 1
56 40 3
56 41 2
56 42 4
56 43 4
56 44 1
56 45 1
56 46 1
56 47 2
56 48 3
56 49 1
56 50 6
56 51 1
56 52 2
56 53 1
56 54 3
56 55 6
57 0 2
57 1 1
57 2 5
57 3 6
57 4 2
57 5 3
57 6 6
57 7 6
57 8 4
57 9 5
57 10 6
57 11 4
57 12 2
57 13 3
57 14 3
57 15 3
57 16 5
57 17 1
57 18 1
57 19 2
57 20 4
57 21 1
57 22 1
57 23 2
57 24 6
57 25 5
57 26 6
57 27 6
57 28 1
57 29 2
57 30 3
57 31 3
57 32 2
57 33 5
57 34 2
57 35 1
57 36 4
57 37 4
57 38 5
57 39 5
57 40 4
57 41 4
57 42 2
57 43 2
57 44 4
57 45 3
57 46 2
57 47 1
57 48 5
57 49 3
57 50 2
57 51 2
57 52 5
57 53 4
57 54 6
57 55 3
57 56 5
58 0 5
58 1 4
58 2 2
58 3 6
58 4 2
58 5 5
58 6 4
58 7 1
58 8 2
58 9 6
58 10 4
58 11 2
58 12 5
58 13 3
58 14 1
58 15 1
58 16 2
58 17 5
58 18 6
58 19 2
58 20 3
58 21 2
58 22 5
58 23 6
58 24 3
58 25 4
58 26 4
58 27 6
58 28 1
58 29 2
58 30 5
58 31 6
58 32 2
58 33 6
58 34 6
58 35 6
58 36 4
58 37 4
58 38 4
58 39 3
58 40 4
58 41 6
58 42 2
58 43 4
58 44 1
58 45 6
58 46 5
58 47 3
58 48 6
58 49 2
58 50 1
58 51 5
58 52 4
58 53 4
58 54 1
58 55 1
58 56 3
58 57 2
59 0 1
59 1 1
59 2 1
59 3 5
59 4 5
59 5 1
59 6 4
59 7 6
59 8 1
59 9 1
59 10 3
59 11 5
59 12 5
59 13 5
59 14 4
59 15 5
59 16 3
59 17 2
59 18 1
59 19 3
59 20 5
59 21 4
59 22 2
59 23 3
59 24 2
59 25 3
59 26 3
59 27 1
59 28 2
59 29 5
59 30 2
59 31 4
59 32 3
59 33 4
59 34 4
59 35 6
59 36 6
59 37 6
59 38 1
59 39 1
59 40 6
59 41 4
59 42 2
59 43 6
59 44 4
59 45 5
59 46 1
59 47 1
59 48 2
59 49 1
59 50 3
59 51 2
59 52 6
59 53 4
59 54 3
59 55 5
59 56 1
59 57 6
59 58 4
